\ENCODING=ISO-8859-1
\Problem name: 

Minimize
 obj1: x23 + x24 + t
Subject To
 b_0:  x23 + 2 x24 + t >= 10.4
 b_1:  x23 + 2 x24 + t >= 10.4
 b_2:  x23 + 2 x24 + t >= 10.4
 b_3:  x23 + 2 x24 + t >= 10.4
 b_4:  x23 + 2 x24 + t >= 10.4
 b_5:  x23 + 2 x24 + t >= 10.4
 b_6:  x23 + 2 x24 + t >= 10.4
 b_7:  x23 + 2 x24 + t >= 10.4
 b_8:  x23 + 2 x24 + t >= 10.4
 b_9:  x23 + 2 x24 + t >= 10.4
 b_10: x23 + 2 x24 + t >= 10.4
 b_11: x23 + 2 x24 + t >= 10.4
 b_12: x23 + 2 x24 + t >= 10.4
 b_13: x23 + 2 x24 + t >= 10.4
 b_14: x23 + 2 x24 + t >= 10.4
 b_15: x23 + 2 x24 + t >= 10.4
 b_16: x23 + 2 x24 + t >= 10.4
 b_17: x23 + 2 x24 + t >= 10.4
 b_18: x23 + 2 x24 + t >= 10.4
 b_19: x23 + 2 x24 + t >= 10.4
 b_20: x23 + 2 x24 + t >= 10.4
 b_21: x23 + 2 x24 + t >= 10.4
 b_22: x23 + 2 x24 + t >= 10.4
 b_23: x23 + 2 x24 + t >= 10.4
 b_24: x23 + 2 x24 + t >= 10.4
 b_25: x23 + 2 x24 + t >= 10.4
 b_26: x23 + 2 x24 + t >= 10.4
 b_27: x23 + 2 x24 + t >= 10.4
 b_28: x23 + 2 x24 + t >= 10.4
 b_29: x23 + 2 x24 + t >= 10.4
 b_30: x23 + 2 x24 + t >= 10.4
 b_31: x23 + 2 x24 + t >= 10.4
 b_32: x23 + 2 x24 + t >= 10.4
 b_33: x23 + 2 x24 + t >= 10.4
 b_34: x23 + 2 x24 + t >= 10.4
 b_35: x23 + 2 x24 + t >= 10.4
 b_36: x23 + 2 x24 + t >= 10.4
 b_37: x23 + 2 x24 + t >= 10.4
 b_38: x23 + 2 x24 + t >= 10.4
 b_39: x23 + 2 x24 + t >= 10.4
 b_40: x23 + 2 x24 + t >= 10.4
 b_41: x23 + 2 x24 + t >= 10.4
 b_42: x23 + 2 x24 + t >= 10.4
 b_43: x23 + 2 x24 + t >= 10.4
 b_44: x23 + 2 x24 + t >= 10.4
 b_45: x23 + 2 x24 + t >= 10.4
 b_46: x23 + 2 x24 + t >= 10.4
 b_47: x23 + 2 x24 + t >= 10.4
 b_48: x23 + 2 x24 + t >= 10.4
 b_49: x23 + 2 x24 + t >= 10.4
 b_50: x23 + 2 x24 + t >= 10.4
 b_51: x23 + 2 x24 + t >= 10.4
 b_52: x23 + 2 x24 + t >= 10.4
 b_53: x23 + 2 x24 + t >= 10.4
 b_54: x23 + 2 x24 + t >= 10.4
 b_55: x23 + 2 x24 + t >= 10.4
 b_56: x23 + 2 x24 + t >= 10.4
 b_57: x23 + 2 x24 + t >= 10.4
 b_58: x23 + 2 x24 + t >= 10.4
 b_59: x23 + 2 x24 + t >= 10.4
 b_60: x23 + 2 x24 + t >= 10.4
 b_61: x23 + 2 x24 + t >= 10.4
 b_62: x23 + 2 x24 + t >= 10.4
 b_63: x23 + 2 x24 + t >= 10.4
 b_64: x23 + 2 x24 + t >= 10.4
 b_65: x23 + 2 x24 + t >= 10.4
 b_66: x23 + 2 x24 + t >= 10.4
 b_67: x23 + 2 x24 + t >= 10.4
 b_68: x23 + 2 x24 + t >= 10.4
 b_69: x23 + 2 x24 + t >= 10.4
 b_70: x23 + 2 x24 + t >= 10.4
 b_71: x23 + 2 x24 + t >= 10.4
 b_72: x23 + 2 x24 + t >= 10.4
 b_73: x23 + 2 x24 + t >= 10.4
 b_74: x23 + 2 x24 + t >= 10.4
 b_75: x23 + 2 x24 + t >= 10.4
 b_76: x23 + 2 x24 + t >= 10.4
 b_77: x23 + 2 x24 + t >= 10.4
 b_78: x23 + 2 x24 + t >= 10.4
 b_79: x23 + 2 x24 + t >= 10.4
 b_80: x23 + 2 x24 + t >= 10.4
Bounds
 0 <= x23 <= 1
 0 <= x24 <= 1
Binaries
 x23  x24 
End
